Version identifier: 22.1.1.0 | 2022-11-27 | 9160aff4d
Legacy callback                                  pi
Tried aggregator 1 time.
MIQCP Presolve eliminated 4230 rows and 849 columns.
MIQCP Presolve modified 23 coefficients.
Reduced MIQCP has 10038 rows, 9987 columns, and 33269 nonzeros.
Reduced MIQCP has 174 binaries, 30 generals, 0 SOSs, and 0 indicators.
Reduced MIQCP has 1903 quadratic constraints.
Presolve time = 1.14 sec. (32.19 ticks)
Probing fixed 2 vars, tightened 5923 bounds.
Probing changed sense of 6 constraints.
Probing time = 0.67 sec. (40.28 ticks)
Cover probing fixed 0 vars, tightened 724 bounds.
Clique table members: 1336.
MIP emphasis: balance optimality and feasibility.
MIP search method: dynamic search.
Parallel mode: deterministic, using up to 12 threads.
Root relaxation solution time = 2.81 sec. (987.93 ticks)

        Nodes                                         Cuts/
   Node  Left     Objective  IInf  Best Integer    Best Bound    ItCnt     Gap

      0     0       11.1900     0                      0.0000     9021         
      0     0       11.1900    78                     11.1900     9021         
*     0+    0                          567.3902       11.1900            98.03%
      0     0       11.1900   100      567.3902       Cuts: 3     9129   98.03%
      0     0       11.1900    34      567.3902       Cuts: 6     9286   98.03%
      0     0       13.4789    94      567.3902      Cuts: 47     9604   97.62%
      0     0       22.3800    73      567.3902      Cuts: 49     9824   96.06%
      0     0       22.3800    64      567.3902      Cuts: 28     9870   96.06%
      0     0       22.3800    84      567.3902      Cuts: 42     9985   96.06%
      0     2       22.3800    80      567.3902       22.3800     9985   96.06%
Elapsed time = 29.88 sec. (3952.05 ticks, tree = 0.02 MB, solutions = 1)
      2     3       22.3800    89      567.3902       22.3800    10605   96.06%
      4     3       22.3800    47      567.3902       22.3800    11485   96.06%
      6     3       22.3800    19      567.3902       22.3800    12176   96.06%
      8     2       47.5300    87      567.3902       22.3800    13232   96.06%
*     9     1      integral     0      567.3900       22.3800    13587   96.06%

Clique cuts applied:  1
Implied bound cuts applied:  3
Flow cuts applied:  1
Mixed integer rounding cuts applied:  7
Zero-half cuts applied:  3
Cone linearizations applied:  13

Root node processing (before b&c):
  Real time             =   29.34 sec. (3879.46 ticks)
Parallel b&c, 12 threads:
  Real time             =   21.56 sec. (20028.26 ticks)
  Sync time (average)   =   19.50 sec.
  Wait time (average)   =    0.00 sec.
                          ------------
Total (root+branch&cut) =   50.91 sec. (23907.72 ticks)
